
Gurobi 9.5.1 (mac64[x86]) logging started Thu Aug  4 02:47:53 2022

Set parameter LogFile to value "/Users/keyvanmajd/Documents/GitHub/NNRepLayer_v2/demos/walking_example/dynamic_constraint/repair_net_relaxed/logs/opt_log_8_4_2022_2_47_7.log"
Gurobi Optimizer version 9.5.1 build v9.5.1rc2 (mac64[x86])
Thread count: 4 physical cores, 8 logical processors, using up to 8 threads
Optimize a model with 15374 rows, 10990 columns and 174545 nonzeros
Model fingerprint: 0x4f20abaf
Model has 270 quadratic objective terms
Variable types: 6670 continuous, 4320 integer (4320 binary)
Coefficient statistics:
  Matrix range     [2e-03, 1e+02]
  Objective range  [3e-03, 2e+00]
  QObjective range [7e-02, 7e-02]
  Bounds range     [3e-04, 2e+02]
  RHS range        [1e-04, 1e+02]
Presolve removed 0 rows and 238 columns
Presolve time: 0.02s

Explored 0 nodes (0 simplex iterations) in 0.03 seconds (0.00 work units)
Thread count was 1 (of 8 available processors)

Solution count 0

Model is infeasible
Best objective -, best bound -, gap -
